EjemplosPracticas/gurobi_models/ejemplo2_2.lp
Minimize

3.0 x_0 + 2.0 x_1 + 3.0 x_2 + 1.0 x_3 + 2.0 x_4 + 1.0 x_5 + 5.0 x_6 + 2.0 x_7


Subject To

a0: 0 x_0 + 1 x_1 + 0 x_2 + 1 x_3 + 0 x_4 + 0 x_5 + 0 x_6 + 0 x_7 >= 1
a1: 0 x_0 + 0 x_1 + 0 x_2 + 1 x_3 + 0 x_4 + 0 x_5 + 1 x_6 + 0 x_7 >= 1
a2: 1 x_0 + 0 x_1 + 0 x_2 + 0 x_3 + 0 x_4 + 0 x_5 + 1 x_6 + 0 x_7 >= 1
a3: 1 x_0 + 0 x_1 + 0 x_2 + 0 x_3 + 0 x_4 + 0 x_5 + 0 x_6 + 0 x_7 >= 1
a4: 0 x_0 + 1 x_1 + 0 x_2 + 1 x_3 + 0 x_4 + 0 x_5 + 0 x_6 + 0 x_7 >= 1
a5: 0 x_0 + 0 x_1 + 1 x_2 + 0 x_3 + 0 x_4 + 0 x_5 + 0 x_6 + 0 x_7 >= 1
a6: 0 x_0 + 0 x_1 + 1 x_2 + 0 x_3 + 0 x_4 + 0 x_5 + 0 x_6 + 0 x_7 >= 1
a7: 0 x_0 + 0 x_1 + 1 x_2 + 0 x_3 + 0 x_4 + 0 x_5 + 0 x_6 + 0 x_7 >= 1
a8: 0 x_0 + 0 x_1 + 0 x_2 + 1 x_3 + 0 x_4 + 0 x_5 + 0 x_6 + 0 x_7 >= 1
a9: 0 x_0 + 1 x_1 + 0 x_2 + 0 x_3 + 0 x_4 + 0 x_5 + 0 x_6 + 1 x_7 >= 1
a10: 0 x_0 + 0 x_1 + 0 x_2 + 0 x_3 + 1 x_4 + 0 x_5 + 0 x_6 + 1 x_7 >= 1
a11: 0 x_0 + 0 x_1 + 1 x_2 + 0 x_3 + 0 x_4 + 0 x_5 + 0 x_6 + 0 x_7 >= 1
a12: 0 x_0 + 0 x_1 + 0 x_2 + 0 x_3 + 0 x_4 + 0 x_5 + 0 x_6 + 1 x_7 >= 1
a13: 0 x_0 + 0 x_1 + 0 x_2 + 0 x_3 + 0 x_4 + 0 x_5 + 0 x_6 + 1 x_7 >= 1
a14: 0 x_0 + 0 x_1 + 1 x_2 + 0 x_3 + 0 x_4 + 0 x_5 + 1 x_6 + 0 x_7 >= 1
a15: 0 x_0 + 0 x_1 + 0 x_2 + 0 x_3 + 0 x_4 + 1 x_5 + 0 x_6 + 0 x_7 >= 1
a16: 1 x_0 + 0 x_1 + 0 x_2 + 0 x_3 + 1 x_4 + 0 x_5 + 0 x_6 + 0 x_7 >= 1
a17: 1 x_0 + 0 x_1 + 0 x_2 + 0 x_3 + 1 x_4 + 0 x_5 + 0 x_6 + 0 x_7 >= 1
a18: 0 x_0 + 0 x_1 + 0 x_2 + 0 x_3 + 1 x_4 + 1 x_5 + 0 x_6 + 0 x_7 >= 1
a19: 1 x_0 + 0 x_1 + 0 x_2 + 0 x_3 + 0 x_4 + 1 x_5 + 0 x_6 + 0 x_7 >= 1




Binary

x_0 x_1 x_2 x_3 x_4 x_5 x_6 x_7

 


End
