EjemplosPracticasNuevo/ficheros/p3/ejemplo2_2.txt
{3,4,17,18,20}:3
{1,5,10}:2
{6,7,8,12,15}:3
{1,2,5,9}:1
{11,17,18,19}:2
{16,19,20}:1
{2,3,15}:5
{10,11,13,14}:2